p cnf 962 2470
51 -2 -1 0
-51 2 0
-51 1 0
52 -51 -696 0
-52 51 0
-52 696 0
53 -5 -4 0
-53 5 0
-53 4 0
54 -53 -697 0
-54 53 0
-54 697 0
55 -698 -699 0
-55 698 0
-55 699 0
56 -8 -700 0
-56 8 0
-56 700 0
57 -56 -701 0
-57 56 0
-57 701 0
58 -702 -55 0
-58 702 0
-58 55 0
59 -11 -10 0
-59 11 0
-59 10 0
60 -59 -703 0
-60 59 0
-60 703 0
61 -704 -58 0
-61 704 0
-61 58 0
62 -705 -706 0
-62 705 0
-62 706 0
63 -62 -15 0
-63 62 0
-63 15 0
64 -707 -61 0
-64 707 0
-64 61 0
65 -708 -9 0
-65 708 0
-65 9 0
66 -65 -16 0
-66 65 0
-66 16 0
67 -709 -64 0
-67 709 0
-67 64 0
68 -17 -710 0
-68 17 0
-68 710 0
69 -68 -711 0
-69 68 0
-69 711 0
70 -712 -67 0
-70 712 0
-70 67 0
71 -713 -3 0
-71 713 0
-71 3 0
72 -71 -714 0
-72 71 0
-72 714 0
73 -715 -70 0
-73 715 0
-73 70 0
74 -716 -717 0
-74 716 0
-74 717 0
75 -74 -718 0
-75 74 0
-75 718 0
76 -719 -73 0
-76 719 0
-76 73 0
77 -23 -7 0
-77 23 0
-77 7 0
78 -77 -11 0
-78 77 0
-78 11 0
79 -720 -76 0
-79 720 0
-79 76 0
80 -705 -2 0
-80 705 0
-80 2 0
81 -80 -701 0
-81 80 0
-81 701 0
82 -721 -79 0
-82 721 0
-82 79 0
83 -722 -24 0
-83 722 0
-83 24 0
84 -83 -15 0
-84 83 0
-84 15 0
85 -723 -82 0
-85 723 0
-85 82 0
86 -26 -1 0
-86 26 0
-86 1 0
87 -86 -27 0
-87 86 0
-87 27 0
88 -724 -85 0
-88 724 0
-88 85 0
89 -725 -714 0
-89 725 0
-89 714 0
90 -89 -726 0
-90 89 0
-90 726 0
91 -727 -88 0
-91 727 0
-91 88 0
92 -29 -2 0
-92 29 0
-92 2 0
93 -92 -30 0
-93 92 0
-93 30 0
94 -728 -91 0
-94 728 0
-94 91 0
95 -31 -729 0
-95 31 0
-95 729 0
96 -95 -730 0
-96 95 0
-96 730 0
97 -731 -94 0
-97 731 0
-97 94 0
98 -28 -14 0
-98 28 0
-98 14 0
99 -98 -732 0
-99 98 0
-99 732 0
100 -733 -97 0
-100 733 0
-100 97 0
101 -734 -725 0
-101 734 0
-101 725 0
102 -101 -6 0
-102 101 0
-102 6 0
103 -735 -100 0
-103 735 0
-103 100 0
104 -736 -33 0
-104 736 0
-104 33 0
105 -104 -35 0
-105 104 0
-105 35 0
106 -737 -103 0
-106 737 0
-106 103 0
107 -738 -19 0
-107 738 0
-107 19 0
108 -107 -12 0
-108 107 0
-108 12 0
109 -739 -106 0
-109 739 0
-109 106 0
110 -734 -23 0
-110 734 0
-110 23 0
111 -110 -718 0
-111 110 0
-111 718 0
112 -740 -109 0
-112 740 0
-112 109 0
113 -37 -14 0
-113 37 0
-113 14 0
114 -113 -741 0
-114 113 0
-114 741 0
115 -742 -112 0
-115 742 0
-115 112 0
116 -38 -708 0
-116 38 0
-116 708 0
117 -116 -743 0
-117 116 0
-117 743 0
118 -744 -115 0
-118 744 0
-118 115 0
119 -705 -703 0
-119 705 0
-119 703 0
120 -119 -18 0
-120 119 0
-120 18 0
121 -745 -118 0
-121 745 0
-121 118 0
122 -34 -11 0
-122 34 0
-122 11 0
123 -122 -6 0
-123 122 0
-123 6 0
124 -746 -121 0
-124 746 0
-124 121 0
125 -32 -747 0
-125 32 0
-125 747 0
126 -125 -729 0
-126 125 0
-126 729 0
127 -748 -124 0
-127 748 0
-127 124 0
128 -10 -1 0
-128 10 0
-128 1 0
129 -128 -34 0
-129 128 0
-129 34 0
130 -749 -127 0
-130 749 0
-130 127 0
131 -750 -4 0
-131 750 0
-131 4 0
132 -131 -716 0
-132 131 0
-132 716 0
133 -751 -130 0
-133 751 0
-133 130 0
134 -752 -2 0
-134 752 0
-134 2 0
135 -134 -753 0
-135 134 0
-135 753 0
136 -754 -133 0
-136 754 0
-136 133 0
137 -730 -701 0
-137 730 0
-137 701 0
138 -137 -35 0
-138 137 0
-138 35 0
139 -755 -136 0
-139 755 0
-139 136 0
140 -756 -10 0
-140 756 0
-140 10 0
141 -140 -19 0
-141 140 0
-141 19 0
142 -757 -139 0
-142 757 0
-142 139 0
143 -729 -705 0
-143 729 0
-143 705 0
144 -143 -736 0
-144 143 0
-144 736 0
145 -758 -142 0
-145 758 0
-145 142 0
146 -98 -2 0
-146 98 0
-146 2 0
147 -759 -145 0
-147 759 0
-147 145 0
148 -7 -4 0
-148 7 0
-148 4 0
149 -148 -729 0
-149 148 0
-149 729 0
150 -760 -147 0
-150 760 0
-150 147 0
151 -747 -26 0
-151 747 0
-151 26 0
152 -151 -741 0
-152 151 0
-152 741 0
153 -761 -150 0
-153 761 0
-153 150 0
154 -25 -24 0
-154 25 0
-154 24 0
155 -154 -708 0
-155 154 0
-155 708 0
156 -762 -153 0
-156 762 0
-156 153 0
157 -26 -763 0
-157 26 0
-157 763 0
158 -157 -41 0
-158 157 0
-158 41 0
159 -764 -156 0
-159 764 0
-159 156 0
160 -765 -34 0
-160 765 0
-160 34 0
161 -160 -766 0
-161 160 0
-161 766 0
162 -767 -159 0
-162 767 0
-162 159 0
163 -696 -717 0
-163 696 0
-163 717 0
164 -163 -768 0
-164 163 0
-164 768 0
165 -769 -162 0
-165 769 0
-165 162 0
166 -770 -9 0
-166 770 0
-166 9 0
167 -166 -44 0
-167 166 0
-167 44 0
168 -771 -165 0
-168 771 0
-168 165 0
169 -753 -772 0
-169 753 0
-169 772 0
170 -169 -15 0
-170 169 0
-170 15 0
171 -773 -168 0
-171 773 0
-171 168 0
172 -27 -741 0
-172 27 0
-172 741 0
173 -172 -774 0
-173 172 0
-173 774 0
174 -775 -171 0
-174 775 0
-174 171 0
175 -16 -7 0
-175 16 0
-175 7 0
176 -175 -766 0
-176 175 0
-176 766 0
177 -776 -174 0
-177 776 0
-177 174 0
178 -46 -747 0
-178 46 0
-178 747 0
179 -178 -708 0
-179 178 0
-179 708 0
180 -777 -177 0
-180 777 0
-180 177 0
181 -718 -708 0
-181 718 0
-181 708 0
182 -181 -47 0
-182 181 0
-182 47 0
183 -778 -180 0
-183 778 0
-183 180 0
184 -750 -22 0
-184 750 0
-184 22 0
185 -184 -703 0
-185 184 0
-185 703 0
186 -779 -183 0
-186 779 0
-186 183 0
187 -780 -38 0
-187 780 0
-187 38 0
188 -187 -44 0
-188 187 0
-188 44 0
189 -781 -186 0
-189 781 0
-189 186 0
190 -31 -726 0
-190 31 0
-190 726 0
191 -190 -780 0
-191 190 0
-191 780 0
192 -782 -189 0
-192 782 0
-192 189 0
193 -770 -38 0
-193 770 0
-193 38 0
194 -193 -40 0
-194 193 0
-194 40 0
195 -783 -192 0
-195 783 0
-195 192 0
196 -45 -713 0
-196 45 0
-196 713 0
197 -196 -784 0
-197 196 0
-197 784 0
198 -785 -195 0
-198 785 0
-198 195 0
199 -14 -2 0
-199 14 0
-199 2 0
200 -199 -718 0
-200 199 0
-200 718 0
201 -786 -198 0
-201 786 0
-201 198 0
202 -45 -44 0
-202 45 0
-202 44 0
203 -202 -736 0
-203 202 0
-203 736 0
204 -787 -201 0
-204 787 0
-204 201 0
205 -788 -24 0
-205 788 0
-205 24 0
206 -205 -16 0
-206 205 0
-206 16 0
207 -789 -204 0
-207 789 0
-207 204 0
208 -790 -9 0
-208 790 0
-208 9 0
209 -208 -697 0
-209 208 0
-209 697 0
210 -791 -207 0
-210 791 0
-210 207 0
211 -48 -780 0
-211 48 0
-211 780 0
212 -211 -34 0
-212 211 0
-212 34 0
213 -792 -210 0
-213 792 0
-213 210 0
214 -752 -717 0
-214 752 0
-214 717 0
215 -214 -756 0
-215 214 0
-215 756 0
216 -793 -213 0
-216 793 0
-216 213 0
217 -12 -717 0
-217 12 0
-217 717 0
218 -217 -794 0
-218 217 0
-218 794 0
219 -795 -216 0
-219 795 0
-219 216 0
220 -17 -15 0
-220 17 0
-220 15 0
221 -220 -784 0
-221 220 0
-221 784 0
222 -796 -219 0
-222 796 0
-222 219 0
223 -706 -717 0
-223 706 0
-223 717 0
224 -223 -30 0
-224 223 0
-224 30 0
225 -797 -222 0
-225 797 0
-225 222 0
226 -31 -3 0
-226 31 0
-226 3 0
227 -226 -18 0
-227 226 0
-227 18 0
228 -798 -225 0
-228 798 0
-228 225 0
229 -34 -23 0
-229 34 0
-229 23 0
230 -229 -30 0
-230 229 0
-230 30 0
231 -799 -228 0
-231 799 0
-231 228 0
232 -736 -741 0
-232 736 0
-232 741 0
233 -232 -35 0
-233 232 0
-233 35 0
234 -800 -231 0
-234 800 0
-234 231 0
235 -13 -700 0
-235 13 0
-235 700 0
236 -235 -701 0
-236 235 0
-236 701 0
237 -801 -234 0
-237 801 0
-237 234 0
238 -29 -21 0
-238 29 0
-238 21 0
239 -238 -5 0
-239 238 0
-239 5 0
240 -802 -237 0
-240 802 0
-240 237 0
241 -28 -718 0
-241 28 0
-241 718 0
242 -241 -17 0
-242 241 0
-242 17 0
243 -803 -240 0
-243 803 0
-243 240 0
244 -770 -804 0
-244 770 0
-244 804 0
245 -244 -33 0
-245 244 0
-245 33 0
246 -805 -243 0
-246 805 0
-246 243 0
247 -806 -43 0
-247 806 0
-247 43 0
248 -247 -738 0
-248 247 0
-248 738 0
249 -807 -246 0
-249 807 0
-249 246 0
250 -26 -13 0
-250 26 0
-250 13 0
251 -250 -47 0
-251 250 0
-251 47 0
252 -808 -249 0
-252 808 0
-252 249 0
253 -706 -809 0
-253 706 0
-253 809 0
254 -253 -31 0
-254 253 0
-254 31 0
255 -810 -252 0
-255 810 0
-255 252 0
256 -722 -22 0
-256 722 0
-256 22 0
257 -256 -710 0
-257 256 0
-257 710 0
258 -811 -255 0
-258 811 0
-258 255 0
259 -45 -38 0
-259 45 0
-259 38 0
260 -259 -703 0
-260 259 0
-260 703 0
261 -812 -258 0
-261 812 0
-261 258 0
262 -49 -747 0
-262 49 0
-262 747 0
263 -262 -813 0
-263 262 0
-263 813 0
264 -814 -261 0
-264 814 0
-264 261 0
265 -788 -20 0
-265 788 0
-265 20 0
266 -265 -743 0
-266 265 0
-266 743 0
267 -815 -264 0
-267 815 0
-267 264 0
268 -816 -722 0
-268 816 0
-268 722 0
269 -268 -5 0
-269 268 0
-269 5 0
270 -817 -267 0
-270 817 0
-270 267 0
271 -747 -19 0
-271 747 0
-271 19 0
272 -271 -30 0
-272 271 0
-272 30 0
273 -818 -270 0
-273 818 0
-273 270 0
274 -32 -27 0
-274 32 0
-274 27 0
275 -274 -16 0
-275 274 0
-275 16 0
276 -819 -273 0
-276 819 0
-276 273 0
277 -700 -741 0
-277 700 0
-277 741 0
278 -277 -726 0
-278 277 0
-278 726 0
279 -820 -276 0
-279 820 0
-279 276 0
280 -765 -1 0
-280 765 0
-280 1 0
281 -280 -703 0
-281 280 0
-281 703 0
282 -821 -279 0
-282 821 0
-282 279 0
283 -39 -36 0
-283 39 0
-283 36 0
284 -283 -794 0
-284 283 0
-284 794 0
285 -822 -282 0
-285 822 0
-285 282 0
286 -13 -7 0
-286 13 0
-286 7 0
287 -286 -3 0
-287 286 0
-287 3 0
288 -823 -285 0
-288 823 0
-288 285 0
289 -49 -736 0
-289 49 0
-289 736 0
290 -289 -6 0
-290 289 0
-290 6 0
291 -824 -288 0
-291 824 0
-291 288 0
292 -806 -765 0
-292 806 0
-292 765 0
293 -292 -30 0
-293 292 0
-293 30 0
294 -825 -291 0
-294 825 0
-294 291 0
295 -753 -788 0
-295 753 0
-295 788 0
296 -295 -34 0
-296 295 0
-296 34 0
297 -826 -294 0
-297 826 0
-297 294 0
298 -36 -30 0
-298 36 0
-298 30 0
299 -298 -6 0
-299 298 0
-299 6 0
300 -827 -297 0
-300 827 0
-300 297 0
301 -26 -24 0
-301 26 0
-301 24 0
302 -301 -33 0
-302 301 0
-302 33 0
303 -828 -300 0
-303 828 0
-303 300 0
304 -47 -40 0
-304 47 0
-304 40 0
305 -304 -12 0
-305 304 0
-305 12 0
306 -829 -303 0
-306 829 0
-306 303 0
307 -716 -2 0
-307 716 0
-307 2 0
308 -307 -766 0
-308 307 0
-308 766 0
309 -830 -306 0
-309 830 0
-309 306 0
310 -784 -752 0
-310 784 0
-310 752 0
311 -310 -42 0
-311 310 0
-311 42 0
312 -831 -309 0
-312 831 0
-312 309 0
313 -28 -732 0
-313 28 0
-313 732 0
314 -313 -41 0
-314 313 0
-314 41 0
315 -832 -312 0
-315 832 0
-315 312 0
316 -17 -708 0
-316 17 0
-316 708 0
317 -316 -44 0
-317 316 0
-317 44 0
318 -833 -315 0
-318 833 0
-318 315 0
319 -756 -718 0
-319 756 0
-319 718 0
320 -319 -710 0
-320 319 0
-320 710 0
321 -834 -318 0
-321 834 0
-321 318 0
322 -27 -17 0
-322 27 0
-322 17 0
323 -322 -780 0
-323 322 0
-323 780 0
324 -835 -321 0
-324 835 0
-324 321 0
325 -44 -8 0
-325 44 0
-325 8 0
326 -325 -768 0
-326 325 0
-326 768 0
327 -836 -324 0
-327 836 0
-327 324 0
328 -39 -772 0
-328 39 0
-328 772 0
329 -328 -18 0
-329 328 0
-329 18 0
330 -837 -327 0
-330 837 0
-330 327 0
331 -27 -722 0
-331 27 0
-331 722 0
332 -331 -30 0
-332 331 0
-332 30 0
333 -838 -330 0
-333 838 0
-333 330 0
334 -2 -717 0
-334 2 0
-334 717 0
335 -334 -770 0
-335 334 0
-335 770 0
336 -839 -333 0
-336 839 0
-336 333 0
337 -37 -7 0
-337 37 0
-337 7 0
338 -337 -741 0
-338 337 0
-338 741 0
339 -840 -336 0
-339 840 0
-339 336 0
340 -729 -2 0
-340 729 0
-340 2 0
341 -340 -784 0
-341 340 0
-341 784 0
342 -841 -339 0
-342 841 0
-342 339 0
343 -46 -38 0
-343 46 0
-343 38 0
344 -343 -15 0
-344 343 0
-344 15 0
345 -842 -342 0
-345 842 0
-345 342 0
346 -806 -716 0
-346 806 0
-346 716 0
347 -346 -784 0
-347 346 0
-347 784 0
348 -843 -345 0
-348 843 0
-348 345 0
349 -43 -716 0
-349 43 0
-349 716 0
350 -349 -22 0
-350 349 0
-350 22 0
351 -844 -348 0
-351 844 0
-351 348 0
352 -41 -40 0
-352 41 0
-352 40 0
353 -352 -6 0
-353 352 0
-353 6 0
354 -845 -351 0
-354 845 0
-354 351 0
355 -45 -763 0
-355 45 0
-355 763 0
356 -355 -6 0
-356 355 0
-356 6 0
357 -846 -354 0
-357 846 0
-357 354 0
358 -816 -774 0
-358 816 0
-358 774 0
359 -358 -736 0
-359 358 0
-359 736 0
360 -847 -357 0
-360 847 0
-360 357 0
361 -47 -38 0
-361 47 0
-361 38 0
362 -361 -768 0
-362 361 0
-362 768 0
363 -848 -360 0
-363 848 0
-363 360 0
364 -700 -696 0
-364 700 0
-364 696 0
365 -364 -765 0
-365 364 0
-365 765 0
366 -849 -363 0
-366 849 0
-366 363 0
367 -28 -3 0
-367 28 0
-367 3 0
368 -367 -42 0
-368 367 0
-368 42 0
369 -850 -366 0
-369 850 0
-369 366 0
370 -718 -15 0
-370 718 0
-370 15 0
371 -370 -701 0
-371 370 0
-371 701 0
372 -851 -369 0
-372 851 0
-372 369 0
373 -223 -813 0
-373 223 0
-373 813 0
374 -852 -372 0
-374 852 0
-374 372 0
375 -10 -809 0
-375 10 0
-375 809 0
376 -375 -6 0
-376 375 0
-376 6 0
377 -853 -374 0
-377 853 0
-377 374 0
378 -22 -10 0
-378 22 0
-378 10 0
379 -378 -736 0
-379 378 0
-379 736 0
380 -854 -377 0
-380 854 0
-380 377 0
381 -50 -2 0
-381 50 0
-381 2 0
382 -381 -15 0
-382 381 0
-382 15 0
383 -855 -380 0
-383 855 0
-383 380 0
384 -714 -717 0
-384 714 0
-384 717 0
385 -384 -15 0
-385 384 0
-385 15 0
386 -856 -383 0
-386 856 0
-386 383 0
387 -199 -701 0
-387 199 0
-387 701 0
388 -857 -386 0
-388 857 0
-388 386 0
389 -806 -809 0
-389 806 0
-389 809 0
390 -389 -49 0
-390 389 0
-390 49 0
391 -858 -388 0
-391 858 0
-391 388 0
392 -806 -29 0
-392 806 0
-392 29 0
393 -392 -732 0
-393 392 0
-393 732 0
394 -859 -391 0
-394 859 0
-394 391 0
395 -713 -708 0
-395 713 0
-395 708 0
396 -395 -697 0
-396 395 0
-396 697 0
397 -860 -394 0
-397 860 0
-397 394 0
398 -725 -23 0
-398 725 0
-398 23 0
399 -398 -48 0
-399 398 0
-399 48 0
400 -861 -397 0
-400 861 0
-400 397 0
401 -44 -9 0
-401 44 0
-401 9 0
402 -401 -768 0
-402 401 0
-402 768 0
403 -862 -400 0
-403 862 0
-403 400 0
404 -43 -3 0
-404 43 0
-404 3 0
405 -404 -11 0
-405 404 0
-405 11 0
406 -863 -403 0
-406 863 0
-406 403 0
407 -729 -7 0
-407 729 0
-407 7 0
408 -407 -14 0
-408 407 0
-408 14 0
409 -864 -406 0
-409 864 0
-409 406 0
410 -38 -21 0
-410 38 0
-410 21 0
411 -410 -701 0
-411 410 0
-411 701 0
412 -865 -409 0
-412 865 0
-412 409 0
413 -780 -706 0
-413 780 0
-413 706 0
414 -413 -9 0
-414 413 0
-414 9 0
415 -866 -412 0
-415 866 0
-415 412 0
416 -39 -788 0
-416 39 0
-416 788 0
417 -416 -736 0
-417 416 0
-417 736 0
418 -867 -415 0
-418 867 0
-418 415 0
419 -48 -732 0
-419 48 0
-419 732 0
420 -419 -18 0
-420 419 0
-420 18 0
421 -868 -418 0
-421 868 0
-421 418 0
422 -39 -750 0
-422 39 0
-422 750 0
423 -422 -14 0
-423 422 0
-423 14 0
424 -869 -421 0
-424 869 0
-424 421 0
425 -790 -38 0
-425 790 0
-425 38 0
426 -425 -18 0
-426 425 0
-426 18 0
427 -870 -424 0
-427 870 0
-427 424 0
428 -806 -753 0
-428 806 0
-428 753 0
429 -428 -17 0
-429 428 0
-429 17 0
430 -871 -427 0
-430 871 0
-430 427 0
431 -39 -706 0
-431 39 0
-431 706 0
432 -431 -17 0
-432 431 0
-432 17 0
433 -872 -430 0
-433 872 0
-433 430 0
434 -770 -753 0
-434 770 0
-434 753 0
435 -434 -42 0
-435 434 0
-435 42 0
436 -873 -433 0
-436 873 0
-436 433 0
437 -46 -722 0
-437 46 0
-437 722 0
438 -437 -40 0
-438 437 0
-438 40 0
439 -874 -436 0
-439 874 0
-439 436 0
440 -790 -8 0
-440 790 0
-440 8 0
441 -440 -22 0
-441 440 0
-441 22 0
442 -875 -439 0
-442 875 0
-442 439 0
443 -10 -6 0
-443 10 0
-443 6 0
444 -443 -711 0
-444 443 0
-444 711 0
445 -876 -442 0
-445 876 0
-445 442 0
446 -27 -696 0
-446 27 0
-446 696 0
447 -446 -20 0
-447 446 0
-447 20 0
448 -877 -445 0
-448 877 0
-448 445 0
449 -752 -716 0
-449 752 0
-449 716 0
450 -449 -878 0
-450 449 0
-450 878 0
451 -879 -448 0
-451 879 0
-451 448 0
452 -47 -36 0
-452 47 0
-452 36 0
453 -452 -768 0
-453 452 0
-453 768 0
454 -880 -451 0
-454 880 0
-454 451 0
455 -804 -809 0
-455 804 0
-455 809 0
456 -455 -16 0
-456 455 0
-456 16 0
457 -881 -454 0
-457 881 0
-457 454 0
458 -322 -12 0
-458 322 0
-458 12 0
459 -882 -457 0
-459 882 0
-459 457 0
460 -806 -26 0
-460 806 0
-460 26 0
461 -460 -784 0
-461 460 0
-461 784 0
462 -883 -459 0
-462 883 0
-462 459 0
463 -10 -5 0
-463 10 0
-463 5 0
464 -463 -696 0
-464 463 0
-464 696 0
465 -884 -462 0
-465 884 0
-465 462 0
466 -790 -726 0
-466 790 0
-466 726 0
467 -466 -768 0
-467 466 0
-467 768 0
468 -885 -465 0
-468 885 0
-468 465 0
469 -725 -13 0
-469 725 0
-469 13 0
470 -469 -3 0
-470 469 0
-470 3 0
471 -886 -468 0
-471 886 0
-471 468 0
472 -774 -703 0
-472 774 0
-472 703 0
473 -472 -813 0
-473 472 0
-473 813 0
474 -887 -471 0
-474 887 0
-474 471 0
475 -756 -714 0
-475 756 0
-475 714 0
476 -475 -15 0
-476 475 0
-476 15 0
477 -888 -474 0
-477 888 0
-477 474 0
478 -806 -41 0
-478 806 0
-478 41 0
479 -478 -42 0
-479 478 0
-479 42 0
480 -889 -477 0
-480 889 0
-480 477 0
481 -196 -33 0
-481 196 0
-481 33 0
482 -890 -480 0
-482 890 0
-482 480 0
483 -780 -752 0
-483 780 0
-483 752 0
484 -483 -701 0
-484 483 0
-484 701 0
485 -891 -482 0
-485 891 0
-485 482 0
486 -39 -747 0
-486 39 0
-486 747 0
487 -486 -48 0
-487 486 0
-487 48 0
488 -892 -485 0
-488 892 0
-488 485 0
489 -32 -722 0
-489 32 0
-489 722 0
490 -489 -711 0
-490 489 0
-490 711 0
491 -893 -488 0
-491 893 0
-491 488 0
492 -816 -36 0
-492 816 0
-492 36 0
493 -492 -15 0
-493 492 0
-493 15 0
494 -894 -491 0
-494 894 0
-494 491 0
495 -24 -741 0
-495 24 0
-495 741 0
496 -495 -8 0
-496 495 0
-496 8 0
497 -895 -494 0
-497 895 0
-497 494 0
498 -38 -750 0
-498 38 0
-498 750 0
499 -498 -45 0
-499 498 0
-499 45 0
500 -896 -497 0
-500 896 0
-500 497 0
501 -772 -763 0
-501 772 0
-501 763 0
502 -501 -697 0
-502 501 0
-502 697 0
503 -897 -500 0
-503 897 0
-503 500 0
504 -27 -13 0
-504 27 0
-504 13 0
505 -504 -711 0
-505 504 0
-505 711 0
506 -898 -503 0
-506 898 0
-506 503 0
507 -725 -26 0
-507 725 0
-507 26 0
508 -507 -25 0
-508 507 0
-508 25 0
509 -899 -506 0
-509 899 0
-509 506 0
510 -743 -725 0
-510 743 0
-510 725 0
511 -510 -18 0
-511 510 0
-511 18 0
512 -900 -509 0
-512 900 0
-512 509 0
513 -816 -700 0
-513 816 0
-513 700 0
514 -513 -743 0
-514 513 0
-514 743 0
515 -901 -512 0
-515 901 0
-515 512 0
516 -816 -710 0
-516 816 0
-516 710 0
517 -516 -30 0
-517 516 0
-517 30 0
518 -902 -515 0
-518 902 0
-518 515 0
519 -734 -809 0
-519 734 0
-519 809 0
520 -519 -14 0
-520 519 0
-520 14 0
521 -903 -518 0
-521 903 0
-521 518 0
522 -788 -725 0
-522 788 0
-522 725 0
523 -522 -3 0
-523 522 0
-523 3 0
524 -904 -521 0
-524 904 0
-524 521 0
525 -725 -717 0
-525 725 0
-525 717 0
526 -525 -31 0
-526 525 0
-526 31 0
527 -905 -524 0
-527 905 0
-527 524 0
528 -47 -5 0
-528 47 0
-528 5 0
529 -528 -703 0
-529 528 0
-529 703 0
530 -906 -527 0
-530 906 0
-530 527 0
531 -706 -3 0
-531 706 0
-531 3 0
532 -531 -30 0
-532 531 0
-532 30 0
533 -907 -530 0
-533 907 0
-533 530 0
534 -33 -730 0
-534 33 0
-534 730 0
535 -534 -813 0
-535 534 0
-535 813 0
536 -908 -533 0
-536 908 0
-536 533 0
537 -20 -10 0
-537 20 0
-537 10 0
538 -537 -47 0
-538 537 0
-538 47 0
539 -909 -536 0
-539 909 0
-539 536 0
540 -734 -14 0
-540 734 0
-540 14 0
541 -540 -768 0
-541 540 0
-541 768 0
542 -910 -539 0
-542 910 0
-542 539 0
543 -23 -700 0
-543 23 0
-543 700 0
544 -543 -41 0
-544 543 0
-544 41 0
545 -911 -542 0
-545 911 0
-545 542 0
546 -166 -18 0
-546 166 0
-546 18 0
547 -912 -545 0
-547 912 0
-547 545 0
548 -743 -28 0
-548 743 0
-548 28 0
549 -548 -44 0
-549 548 0
-549 44 0
550 -913 -547 0
-550 913 0
-550 547 0
551 -753 -716 0
-551 753 0
-551 716 0
552 -551 -713 0
-552 551 0
-552 713 0
553 -914 -550 0
-553 914 0
-553 550 0
554 -726 -2 0
-554 726 0
-554 2 0
555 -554 -16 0
-555 554 0
-555 16 0
556 -915 -553 0
-556 915 0
-556 553 0
557 -756 -3 0
-557 756 0
-557 3 0
558 -557 -42 0
-558 557 0
-558 42 0
559 -916 -556 0
-559 916 0
-559 556 0
560 -763 -732 0
-560 763 0
-560 732 0
561 -560 -730 0
-561 560 0
-561 730 0
562 -917 -559 0
-562 917 0
-562 559 0
563 -39 -725 0
-563 39 0
-563 725 0
564 -563 -747 0
-564 563 0
-564 747 0
565 -918 -562 0
-565 918 0
-565 562 0
566 -730 -10 0
-566 730 0
-566 10 0
567 -566 -726 0
-567 566 0
-567 726 0
568 -919 -565 0
-568 919 0
-568 565 0
569 -8 -696 0
-569 8 0
-569 696 0
570 -569 -703 0
-570 569 0
-570 703 0
571 -920 -568 0
-571 920 0
-571 568 0
572 -756 -741 0
-572 756 0
-572 741 0
573 -572 -732 0
-573 572 0
-573 732 0
574 -921 -571 0
-574 921 0
-574 571 0
575 -816 -44 0
-575 816 0
-575 44 0
576 -575 -41 0
-576 575 0
-576 41 0
577 -922 -574 0
-577 922 0
-577 574 0
578 -750 -21 0
-578 750 0
-578 21 0
579 -578 -30 0
-579 578 0
-579 30 0
580 -923 -577 0
-580 923 0
-580 577 0
581 -13 -741 0
-581 13 0
-581 741 0
582 -581 -8 0
-582 581 0
-582 8 0
583 -924 -580 0
-583 924 0
-583 580 0
584 -806 -816 0
-584 806 0
-584 816 0
585 -584 -46 0
-585 584 0
-585 46 0
586 -925 -583 0
-586 925 0
-586 583 0
587 -48 -725 0
-587 48 0
-587 725 0
588 -587 -5 0
-588 587 0
-588 5 0
589 -926 -586 0
-589 926 0
-589 586 0
590 -804 -1 0
-590 804 0
-590 1 0
591 -590 -794 0
-591 590 0
-591 794 0
592 -927 -589 0
-592 927 0
-592 589 0
593 -38 -700 0
-593 38 0
-593 700 0
594 -593 -35 0
-594 593 0
-594 35 0
595 -928 -592 0
-595 928 0
-595 592 0
596 -40 -31 0
-596 40 0
-596 31 0
597 -596 -22 0
-597 596 0
-597 22 0
598 -929 -595 0
-598 929 0
-598 595 0
599 -27 -809 0
-599 27 0
-599 809 0
600 -599 -813 0
-600 599 0
-600 813 0
601 -930 -598 0
-601 930 0
-601 598 0
602 -40 -772 0
-602 40 0
-602 772 0
603 -602 -30 0
-603 602 0
-603 30 0
604 -931 -601 0
-604 931 0
-604 601 0
605 -101 -711 0
-605 101 0
-605 711 0
606 -932 -604 0
-606 932 0
-606 604 0
607 -27 -7 0
-607 27 0
-607 7 0
608 -607 -3 0
-608 607 0
-608 3 0
609 -933 -606 0
-609 933 0
-609 606 0
610 -32 -1 0
-610 32 0
-610 1 0
611 -610 -45 0
-611 610 0
-611 45 0
612 -934 -609 0
-612 934 0
-612 609 0
613 -20 -9 0
-613 20 0
-613 9 0
614 -613 -41 0
-614 613 0
-614 41 0
615 -935 -612 0
-615 935 0
-615 612 0
616 -214 -18 0
-616 214 0
-616 18 0
617 -936 -615 0
-617 936 0
-617 615 0
618 -729 -11 0
-618 729 0
-618 11 0
619 -618 -20 0
-619 618 0
-619 20 0
620 -937 -617 0
-620 937 0
-620 617 0
621 -29 -706 0
-621 29 0
-621 706 0
622 -621 -41 0
-622 621 0
-622 41 0
623 -938 -620 0
-623 938 0
-623 620 0
624 -722 -714 0
-624 722 0
-624 714 0
625 -624 -794 0
-625 624 0
-625 794 0
626 -939 -623 0
-626 939 0
-626 623 0
627 -47 -13 0
-627 47 0
-627 13 0
628 -627 -12 0
-628 627 0
-628 12 0
629 -940 -626 0
-629 940 0
-629 626 0
630 -774 -40 0
-630 774 0
-630 40 0
631 -630 -33 0
-631 630 0
-631 33 0
632 -941 -629 0
-632 941 0
-632 629 0
633 -790 -765 0
-633 790 0
-633 765 0
634 -633 -35 0
-634 633 0
-634 35 0
635 -942 -632 0
-635 942 0
-635 632 0
636 -753 -26 0
-636 753 0
-636 26 0
637 -636 -45 0
-637 636 0
-637 45 0
638 -943 -635 0
-638 943 0
-638 635 0
639 -25 -10 0
-639 25 0
-639 10 0
640 -639 -711 0
-640 639 0
-640 711 0
641 -944 -638 0
-641 944 0
-641 638 0
642 -48 -37 0
-642 48 0
-642 37 0
643 -642 -770 0
-643 642 0
-643 770 0
644 -945 -641 0
-644 945 0
-644 641 0
645 -46 -804 0
-645 46 0
-645 804 0
646 -645 -718 0
-646 645 0
-646 718 0
647 -946 -644 0
-647 946 0
-647 644 0
648 -738 -33 0
-648 738 0
-648 33 0
649 -648 -813 0
-649 648 0
-649 813 0
650 -947 -647 0
-650 947 0
-650 647 0
651 -28 -10 0
-651 28 0
-651 10 0
652 -651 -718 0
-652 651 0
-652 718 0
653 -948 -650 0
-653 948 0
-653 650 0
654 -27 -23 0
-654 27 0
-654 23 0
655 -654 -45 0
-655 654 0
-655 45 0
656 -949 -653 0
-656 949 0
-656 653 0
657 -806 -717 0
-657 806 0
-657 717 0
658 -657 -780 0
-658 657 0
-658 780 0
659 -950 -656 0
-659 950 0
-659 656 0
660 -34 -5 0
-660 34 0
-660 5 0
661 -660 -765 0
-661 660 0
-661 765 0
662 -951 -659 0
-662 951 0
-662 659 0
663 -736 -5 0
-663 736 0
-663 5 0
664 -663 -41 0
-664 663 0
-664 41 0
665 -952 -662 0
-665 952 0
-665 662 0
666 -36 -27 0
-666 36 0
-666 27 0
667 -666 -714 0
-667 666 0
-667 714 0
668 -953 -665 0
-668 953 0
-668 665 0
669 -48 -21 0
-669 48 0
-669 21 0
670 -669 -17 0
-670 669 0
-670 17 0
671 -954 -668 0
-671 954 0
-671 668 0
672 -19 -10 0
-672 19 0
-672 10 0
673 -672 -784 0
-673 672 0
-673 784 0
674 -955 -671 0
-674 955 0
-674 671 0
675 -43 -714 0
-675 43 0
-675 714 0
676 -675 -12 0
-676 675 0
-676 12 0
677 -956 -674 0
-677 956 0
-677 674 0
678 -36 -31 0
-678 36 0
-678 31 0
679 -678 -732 0
-679 678 0
-679 732 0
680 -957 -677 0
-680 957 0
-680 677 0
681 -25 -12 0
-681 25 0
-681 12 0
682 -681 -42 0
-682 681 0
-682 42 0
683 -958 -680 0
-683 958 0
-683 680 0
684 -770 -26 0
-684 770 0
-684 26 0
685 -684 -34 0
-685 684 0
-685 34 0
686 -959 -683 0
-686 959 0
-686 683 0
687 -28 -716 0
-687 28 0
-687 716 0
688 -687 -730 0
-688 687 0
-688 730 0
689 -960 -686 0
-689 960 0
-689 686 0
690 -713 -1 0
-690 713 0
-690 1 0
691 -690 -736 0
-691 690 0
-691 736 0
692 -961 -689 0
-692 961 0
-692 689 0
693 -28 -23 0
-693 28 0
-693 23 0
694 -693 -772 0
-694 693 0
-694 772 0
695 -962 -692 0
-695 962 0
-695 692 0
-696 -3 0
696 3 0
-697 -6 0
697 6 0
-698 -54 0
698 54 0
-699 -52 0
699 52 0
-700 -7 0
700 7 0
-701 -9 0
701 9 0
-702 -57 0
702 57 0
-703 -12 0
703 12 0
-704 -60 0
704 60 0
-705 -14 0
705 14 0
-706 -13 0
706 13 0
-707 -63 0
707 63 0
-708 -10 0
708 10 0
-709 -66 0
709 66 0
-710 -11 0
710 11 0
-711 -18 0
711 18 0
-712 -69 0
712 69 0
-713 -19 0
713 19 0
-714 -20 0
714 20 0
-715 -72 0
715 72 0
-716 -21 0
716 21 0
-717 -1 0
717 1 0
-718 -22 0
718 22 0
-719 -75 0
719 75 0
-720 -78 0
720 78 0
-721 -81 0
721 81 0
-722 -25 0
722 25 0
-723 -84 0
723 84 0
-724 -87 0
724 87 0
-725 -28 0
725 28 0
-726 -17 0
726 17 0
-727 -90 0
727 90 0
-728 -93 0
728 93 0
-729 -26 0
729 26 0
-730 -15 0
730 15 0
-731 -96 0
731 96 0
-732 -5 0
732 5 0
-733 -99 0
733 99 0
-734 -32 0
734 32 0
-735 -102 0
735 102 0
-736 -34 0
736 34 0
-737 -105 0
737 105 0
-738 -36 0
738 36 0
-739 -108 0
739 108 0
-740 -111 0
740 111 0
-741 -2 0
741 2 0
-742 -114 0
742 114 0
-743 -33 0
743 33 0
-744 -117 0
744 117 0
-745 -120 0
745 120 0
-746 -123 0
746 123 0
-747 -31 0
747 31 0
-748 -126 0
748 126 0
-749 -129 0
749 129 0
-750 -24 0
750 24 0
-751 -132 0
751 132 0
-752 -39 0
752 39 0
-753 -38 0
753 38 0
-754 -135 0
754 135 0
-755 -138 0
755 138 0
-756 -40 0
756 40 0
-757 -141 0
757 141 0
-758 -144 0
758 144 0
-759 -146 0
759 146 0
-760 -149 0
760 149 0
-761 -152 0
761 152 0
-762 -155 0
762 155 0
-763 -23 0
763 23 0
-764 -158 0
764 158 0
-765 -41 0
765 41 0
-766 -42 0
766 42 0
-767 -161 0
767 161 0
-768 -35 0
768 35 0
-769 -164 0
769 164 0
-770 -43 0
770 43 0
-771 -167 0
771 167 0
-772 -27 0
772 27 0
-773 -170 0
773 170 0
-774 -45 0
774 45 0
-775 -173 0
775 173 0
-776 -176 0
776 176 0
-777 -179 0
777 179 0
-778 -182 0
778 182 0
-779 -185 0
779 185 0
-780 -47 0
780 47 0
-781 -188 0
781 188 0
-782 -191 0
782 191 0
-783 -194 0
783 194 0
-784 -44 0
784 44 0
-785 -197 0
785 197 0
-786 -200 0
786 200 0
-787 -203 0
787 203 0
-788 -37 0
788 37 0
-789 -206 0
789 206 0
-790 -46 0
790 46 0
-791 -209 0
791 209 0
-792 -212 0
792 212 0
-793 -215 0
793 215 0
-794 -49 0
794 49 0
-795 -218 0
795 218 0
-796 -221 0
796 221 0
-797 -224 0
797 224 0
-798 -227 0
798 227 0
-799 -230 0
799 230 0
-800 -233 0
800 233 0
-801 -236 0
801 236 0
-802 -239 0
802 239 0
-803 -242 0
803 242 0
-804 -8 0
804 8 0
-805 -245 0
805 245 0
-806 -50 0
806 50 0
-807 -248 0
807 248 0
-808 -251 0
808 251 0
-809 -4 0
809 4 0
-810 -254 0
810 254 0
-811 -257 0
811 257 0
-812 -260 0
812 260 0
-813 -16 0
813 16 0
-814 -263 0
814 263 0
-815 -266 0
815 266 0
-816 -48 0
816 48 0
-817 -269 0
817 269 0
-818 -272 0
818 272 0
-819 -275 0
819 275 0
-820 -278 0
820 278 0
-821 -281 0
821 281 0
-822 -284 0
822 284 0
-823 -287 0
823 287 0
-824 -290 0
824 290 0
-825 -293 0
825 293 0
-826 -296 0
826 296 0
-827 -299 0
827 299 0
-828 -302 0
828 302 0
-829 -305 0
829 305 0
-830 -308 0
830 308 0
-831 -311 0
831 311 0
-832 -314 0
832 314 0
-833 -317 0
833 317 0
-834 -320 0
834 320 0
-835 -323 0
835 323 0
-836 -326 0
836 326 0
-837 -329 0
837 329 0
-838 -332 0
838 332 0
-839 -335 0
839 335 0
-840 -338 0
840 338 0
-841 -341 0
841 341 0
-842 -344 0
842 344 0
-843 -347 0
843 347 0
-844 -350 0
844 350 0
-845 -353 0
845 353 0
-846 -356 0
846 356 0
-847 -359 0
847 359 0
-848 -362 0
848 362 0
-849 -365 0
849 365 0
-850 -368 0
850 368 0
-851 -371 0
851 371 0
-852 -373 0
852 373 0
-853 -376 0
853 376 0
-854 -379 0
854 379 0
-855 -382 0
855 382 0
-856 -385 0
856 385 0
-857 -387 0
857 387 0
-858 -390 0
858 390 0
-859 -393 0
859 393 0
-860 -396 0
860 396 0
-861 -399 0
861 399 0
-862 -402 0
862 402 0
-863 -405 0
863 405 0
-864 -408 0
864 408 0
-865 -411 0
865 411 0
-866 -414 0
866 414 0
-867 -417 0
867 417 0
-868 -420 0
868 420 0
-869 -423 0
869 423 0
-870 -426 0
870 426 0
-871 -429 0
871 429 0
-872 -432 0
872 432 0
-873 -435 0
873 435 0
-874 -438 0
874 438 0
-875 -441 0
875 441 0
-876 -444 0
876 444 0
-877 -447 0
877 447 0
-878 -30 0
878 30 0
-879 -450 0
879 450 0
-880 -453 0
880 453 0
-881 -456 0
881 456 0
-882 -458 0
882 458 0
-883 -461 0
883 461 0
-884 -464 0
884 464 0
-885 -467 0
885 467 0
-886 -470 0
886 470 0
-887 -473 0
887 473 0
-888 -476 0
888 476 0
-889 -479 0
889 479 0
-890 -481 0
890 481 0
-891 -484 0
891 484 0
-892 -487 0
892 487 0
-893 -490 0
893 490 0
-894 -493 0
894 493 0
-895 -496 0
895 496 0
-896 -499 0
896 499 0
-897 -502 0
897 502 0
-898 -505 0
898 505 0
-899 -508 0
899 508 0
-900 -511 0
900 511 0
-901 -514 0
901 514 0
-902 -517 0
902 517 0
-903 -520 0
903 520 0
-904 -523 0
904 523 0
-905 -526 0
905 526 0
-906 -529 0
906 529 0
-907 -532 0
907 532 0
-908 -535 0
908 535 0
-909 -538 0
909 538 0
-910 -541 0
910 541 0
-911 -544 0
911 544 0
-912 -546 0
912 546 0
-913 -549 0
913 549 0
-914 -552 0
914 552 0
-915 -555 0
915 555 0
-916 -558 0
916 558 0
-917 -561 0
917 561 0
-918 -564 0
918 564 0
-919 -567 0
919 567 0
-920 -570 0
920 570 0
-921 -573 0
921 573 0
-922 -576 0
922 576 0
-923 -579 0
923 579 0
-924 -582 0
924 582 0
-925 -585 0
925 585 0
-926 -588 0
926 588 0
-927 -591 0
927 591 0
-928 -594 0
928 594 0
-929 -597 0
929 597 0
-930 -600 0
930 600 0
-931 -603 0
931 603 0
-932 -605 0
932 605 0
-933 -608 0
933 608 0
-934 -611 0
934 611 0
-935 -614 0
935 614 0
-936 -616 0
936 616 0
-937 -619 0
937 619 0
-938 -622 0
938 622 0
-939 -625 0
939 625 0
-940 -628 0
940 628 0
-941 -631 0
941 631 0
-942 -634 0
942 634 0
-943 -637 0
943 637 0
-944 -640 0
944 640 0
-945 -643 0
945 643 0
-946 -646 0
946 646 0
-947 -649 0
947 649 0
-948 -652 0
948 652 0
-949 -655 0
949 655 0
-950 -658 0
950 658 0
-951 -661 0
951 661 0
-952 -664 0
952 664 0
-953 -667 0
953 667 0
-954 -670 0
954 670 0
-955 -673 0
955 673 0
-956 -676 0
956 676 0
-957 -679 0
957 679 0
-958 -682 0
958 682 0
-959 -685 0
959 685 0
-960 -688 0
960 688 0
-961 -691 0
961 691 0
-962 -694 0
962 694 0
695 0
